1.0
33
0.42
0.79
0.35
0.41
0.34
0.14
0.23
0.19
0.35
0.28
0.54
0.23
0.56
0.52
0.18
0.22
0.31
0.16
0.29
0.25
0.27
0.35
0.48
0.15
0.21
0.39
0.10
0.33
0.28
0.19
0.37
0.45
0.52